s td 140 11 150
b 1 1 2 16
b 2 14 15 30
b 3 121 136 137
b 4 135 149 150
b 5 2 3 16 17
b 6 13 14 29 30
b 7 3 4 19 35 51 67 83 99 115 131 147
b 8 4 5 19 35 51 67 83 99 115 131 147
b 9 5 19 21 35 51 67 83 99 115 131 147
b 10 5 7 21 35 51 67 83 99 115 131 147
b 11 5 6 7 21
b 12 7 21 35 37 51 67 83 99 115 131 147
b 13 7 21 23 37 51 67 83 99 115 131 147
b 14 7 23 37 51 53 67 83 99 115 131 147
b 15 7 23 37 39 53 67 83 99 115 131 147
b 16 7 23 39 53 67 69 83 99 115 131 147
b 17 7 23 39 53 55 69 83 99 115 131 147
b 18 7 23 39 55 69 83 85 99 115 131 147
b 19 7 23 39 55 69 71 85 99 115 131 147
b 20 7 23 39 55 71 85 99 101 115 131 147
b 21 7 23 39 55 71 85 87 101 115 131 147
b 22 7 23 39 55 71 87 101 115 117 131 147
b 23 7 23 39 55 71 87 101 103 117 131 147
b 24 7 23 39 55 71 87 103 117 131 133 147
b 25 7 23 39 55 71 87 103 117 119 133 147
b 26 7 23 39 55 71 87 103 105 119 133 147
b 27 7 23 39 55 71 87 89 103 105 119
b 28 7 23 39 55 71 73 87 89 103 105
b 29 7 23 39 55 57 71 73 87 89 105
b 30 7 23 39 41 55 57 71 73 89 105
b 31 7 23 25 39 41 55 57 73 89 105
b 32 7 11 23 25 39 41 57 73 89 105
b 33 7 9 11 23 25 39
b 34 7 8 9 23
b 35 9 10 11 25
b 36 9 23 24 25 39
b 37 11 25 27 41 57 73 89 105
b 38 11 27 41 43 57 73 89 105
b 39 11 27 43 57 59 73 89 105
b 40 11 27 43 59 60 73 89 105
b 41 11 13 27 43 59 60
b 42 11 12 13 27
b 43 13 27 43 45 59 60
b 44 13 27 29 43 45 59
b 45 13 27 28 29 43
b 46 13 29 30 45
b 47 29 43 44 45 59
b 48 59 60 73 74 89 105
b 49 60 74 89 90 105
b 50 60 74 75 90
b 51 43 57 58 59 73
b 52 27 41 42 43 57
b 53 11 25 26 27 41
b 54 25 39 40 41 55
b 55 41 55 56 57 71
b 56 57 71 72 73 87
b 57 73 87 88 89 103
b 58 89 103 104 105 119
b 59 105 119 133 147 149
b 60 105 119 133 134 149
b 61 105 119 120 134 149
b 62 133 147 148 149
b 63 103 117 118 119 133
b 64 117 131 132 133 147
b 65 87 101 102 103 117
b 66 101 115 116 117 131
b 67 71 85 86 87 101
b 68 85 99 100 101 115
b 69 55 69 70 71 85
b 70 69 83 84 85 99
b 71 39 53 54 55 69
b 72 53 67 68 69 83
b 73 23 37 38 39 53
b 74 37 51 52 53 67
b 75 7 21 22 23 37
b 76 21 35 36 37 51
b 77 5 19 20 21 35
b 78 3 19 35 51 67 83 99 115 131 145 147
b 79 3 19 35 51 67 83 99 115 129 131 145
b 80 3 19 35 51 67 83 99 115 129 143 145
b 81 3 19 35 51 67 83 99 113 115 129 143
b 82 3 19 35 51 67 83 97 99 113 129 143
b 83 3 19 35 51 67 81 83 97 113 129 143
b 84 3 19 35 51 65 67 81 97 113 129 143
b 85 3 19 35 49 51 65 81 97 113 129 143
b 86 3 19 33 35 49 65 81 97 113 129 143
b 87 3 19 33 49 65 81 97 113 127 129 143
b 88 3 19 33 49 65 81 97 111 113 127 143
b 89 3 19 33 49 65 81 95 97 111 127 143
b 90 3 19 33 49 65 79 81 95 111 127 143
b 91 3 19 33 49 63 65 79 95 111 127 143
b 92 3 19 33 47 49 63 79 95 111 127 143
b 93 3 19 33 46 47 63 79 95 111 127 143
b 94 3 19 31 33 46 47
b 95 3 17 19 31 33 47
b 96 3 16 17 31
b 97 3 17 18 19 33
b 98 17 31 32 33 47
b 99 46 47 63 79 95 111 127 141 143
b 100 46 47 63 79 95 111 125 127 141
b 101 46 47 63 79 95 109 111 125 141
b 102 46 47 63 79 94 95 109 125 141
b 103 46 47 63 78 79 94 109 125 141
b 104 46 47 62 63 78 94 109 125 141
b 105 46 62 76 78 94 109 125 141
b 106 46 61 62 76
b 107 62 76 78 93 94 109 125 141
b 108 62 76 77 78 93 109 125 141
b 109 76 77 93 109 125 139 141
b 110 76 77 93 109 123 125 139
b 111 76 77 93 107 109 123 139
b 112 76 77 92 93 107 123 139
b 113 76 91 92 107 123 139
b 114 91 107 123 137 139
b 115 91 107 122 123 137
b 116 91 106 107 122 137
b 117 123 137 138 139
b 118 93 107 108 109 123
b 119 109 123 124 125 139
b 120 125 139 140 141
b 121 95 109 110 111 125
b 122 111 125 126 127 141
b 123 127 141 142 143
b 124 33 47 48 49 63
b 125 49 63 64 65 79
b 126 65 79 80 81 95
b 127 81 95 96 97 111
b 128 97 111 112 113 127
b 129 113 127 128 129 143
b 130 19 33 34 35 49
b 131 35 49 50 51 65
b 132 51 65 66 67 81
b 133 67 81 82 83 97
b 134 83 97 98 99 113
b 135 99 113 114 115 129
b 136 129 143 144 145
b 137 115 129 130 131 145
b 138 131 145 146 147
b 139 106 121 122 137
b 140 120 134 135 149
1 5
2 6
3 139
4 140
5 96
6 46
7 8
7 78
8 9
9 10
9 77
10 11
10 12
12 13
12 76
13 14
13 75
14 15
14 74
15 16
15 73
16 17
16 72
17 18
17 71
18 19
18 70
19 20
19 69
20 21
20 68
21 22
21 67
22 23
22 66
23 24
23 65
24 25
24 64
25 26
25 63
26 27
26 59
27 28
27 58
28 29
28 57
29 30
29 56
30 31
30 55
31 32
31 54
32 33
32 37
33 34
33 35
33 36
37 38
37 53
38 39
38 52
39 40
39 51
40 41
40 48
41 42
41 43
43 44
44 45
44 46
44 47
48 49
49 50
59 60
59 62
60 61
61 140
78 79
78 138
79 80
79 137
80 81
80 136
81 82
81 135
82 83
82 134
83 84
83 133
84 85
84 132
85 86
85 131
86 87
86 130
87 88
87 129
88 89
88 128
89 90
89 127
90 91
90 126
91 92
91 125
92 93
92 124
93 94
93 99
94 95
95 96
95 97
95 98
99 100
99 123
100 101
100 122
101 102
101 121
102 103
103 104
104 105
105 106
105 107
107 108
108 109
109 110
109 120
110 111
110 119
111 112
111 118
112 113
113 114
114 115
114 117
115 116
116 139
